c Generated map
c Size: 8 * 8, weights in range: 1 to 10, walls: True, with ratio 0.1
c dim 9 of 9
c
p sp 64 91
c graph contains 64 nodes and 91 arcs
c
a 1 9 1
a 9 1 1
a 1 2 1
a 2 1 1
a 2 10 9
a 10 2 9
a 2 3 7
a 3 2 7
a 3 11 3
a 11 3 3
a 3 4 2
a 4 3 2
a 4 12 9
a 12 4 9
a 4 5 8
a 5 4 8
a 5 13 5
a 13 5 5
a 5 6 2
a 6 5 2
a 6 14 2
a 14 6 2
a 6 7 4
a 7 6 4
a 7 8 8
a 8 7 8
a 8 16 7
a 16 8 7
a 9 17 7
a 17 9 7
a 9 10 8
a 10 9 8
a 10 18 9
a 18 10 9
a 10 11 10
a 11 10 10
a 11 19 1
a 19 11 1
a 11 12 1
a 12 11 1
a 12 20 2
a 20 12 2
a 12 13 10
a 13 12 10
a 13 14 2
a 14 13 2
a 14 22 8
a 22 14 8
a 16 24 3
a 24 16 3
a 17 25 4
a 25 17 4
a 17 18 6
a 18 17 6
a 18 26 10
a 26 18 10
a 18 19 8
a 19 18 8
a 19 27 1
a 27 19 1
a 19 20 6
a 20 19 6
a 20 28 2
a 28 20 2
a 22 30 8
a 30 22 8
a 22 23 6
a 23 22 6
a 23 31 2
a 31 23 2
a 23 24 10
a 24 23 10
a 24 32 2
a 32 24 2
a 25 33 8
a 33 25 8
a 25 26 8
a 26 25 8
a 26 34 4
a 34 26 4
a 26 27 9
a 27 26 9
a 27 35 9
a 35 27 9
a 27 28 8
a 28 27 8
a 28 36 6
a 36 28 6
a 28 29 6
a 29 28 6
a 29 30 4
a 30 29 4
a 30 38 7
a 38 30 7
a 30 31 9
a 31 30 9
a 31 39 3
a 39 31 3
a 31 32 6
a 32 31 6
a 33 41 4
a 41 33 4
a 33 34 6
a 34 33 6
a 34 42 3
a 42 34 3
a 34 35 7
a 35 34 7
a 35 43 6
a 43 35 6
a 35 36 3
a 36 35 3
a 36 44 9
a 44 36 9
a 38 46 10
a 46 38 10
a 38 39 6
a 39 38 6
a 39 47 7
a 47 39 7
a 41 49 6
a 49 41 6
a 41 42 2
a 42 41 2
a 42 50 1
a 50 42 1
a 42 43 4
a 43 42 4
a 43 51 2
a 51 43 2
a 43 44 3
a 44 43 3
a 44 52 7
a 52 44 7
a 46 54 10
a 54 46 10
a 46 47 9
a 47 46 9
a 47 55 4
a 55 47 4
a 47 48 3
a 48 47 3
a 49 57 5
a 57 49 5
a 49 50 6
a 50 49 6
a 50 58 6
a 58 50 6
a 50 51 2
a 51 50 2
a 51 59 2
a 59 51 2
a 51 52 9
a 52 51 9
a 52 60 9
a 60 52 9
a 52 53 9
a 53 52 9
a 53 61 6
a 61 53 6
a 53 54 10
a 54 53 10
a 54 62 5
a 62 54 5
a 54 55 7
a 55 54 7
a 55 63 6
a 63 55 6
a 57 58 9
a 58 57 9
a 58 59 7
a 59 58 7
a 59 60 7
a 60 59 7
a 60 61 8
a 61 60 8
a 61 62 1
a 62 61 1
a 62 63 4
a 63 62 4
a 63 64 7
a 64 63 7
